c NeuroCodeBench 2.0 CNF formula with verdict Sat
p cnf 8 40
3 -5 0
-6 -8 0
8 -3 -7 -1 -4 -5 0
-5 -6 0
5 3 -8 -1 -6 -7 -2 0
3 1 4 5 7 -8 -2 0
1 -6 0
2 -4 0
1 -6 -8 0
6 4 -7 -3 -8 0
-1 -8 0
4 -8 -7 0
5 1 -4 -3 0
6 5 0
5 3 2 0
-2 -5 -6 -1 0
2 8 7 -4 0
1 0
7 0
-3 -7 -6 -4 0
4 1 3 8 -7 -6 -5 0
2 8 6 -3 0
6 -2 0
3 -8 -5 0
4 6 -2 -8 0
1 4 8 5 2 -3 -7 0
2 3 7 -8 -1 0
2 6 -1 -7 0
7 6 1 -5 -3 -4 -2 0
3 -6 -1 0
3 5 0
8 -4 -7 -6 -3 0
6 5 3 0
6 3 2 -1 -5 -8 -7 0
3 6 -7 0
5 1 3 -2 0
1 4 -7 -2 0
8 7 -5 -4 0
4 1 3 6 -7 -8 -5 0
5 1 -3 0
